TC_ILP/cosine1_1.0.lp
Minimize
M1 + M2
Subject To
x0,7 + x0,8 + x0,9 + x0,10 = 1
x1,7 + x1,8 + x1,9 + x1,10 = 1
x2,6 + x2,7 + x2,8 + x2,9 = 1
x3,10 = 1
x4,10 = 1
x5,9 = 1
x6,10 = 1
x7,10 = 1
x8,9 = 1
x9,7 + x9,8 + x9,9 + x9,10 = 1
x10,7 + x10,8 + x10,9 + x10,10 = 1
x11,6 + x11,7 + x11,8 + x11,9 = 1
x12,7 + x12,8 + x12,9 + x12,10 = 1
x13,7 + x13,8 + x13,9 + x13,10 = 1
x14,6 + x14,7 + x14,8 + x14,9 = 1
x15,7 + x15,8 + x15,9 + x15,10 = 1
x16,7 + x16,8 + x16,9 + x16,10 = 1
x17,6 + x17,7 + x17,8 + x17,9 = 1
x18,7 + x18,8 + x18,9 + x18,10 = 1
x19,7 + x19,8 + x19,9 + x19,10 = 1
x20,6 + x20,7 + x20,8 + x20,9 = 1
x21,7 + x21,8 + x21,9 + x21,10 = 1
x22,7 + x22,8 + x22,9 + x22,10 = 1
x23,6 + x23,7 + x23,8 + x23,9 = 1
x24,7 = 1
x25,7 = 1
x26,6 = 1
x27,6 = 1
x28,5 = 1
x29,5 = 1
x30,5 = 1
x31,5 = 1
x32,3 = 1
x33,3 = 1
x34,3 = 1
x35,3 = 1
x36,3 = 1
x37,3 = 1
x38,3 = 1
x39,3 = 1
x40,2 = 1
x41,2 = 1
x42,2 = 1
x43,2 = 1
x44,5 + x44,6 + x44,7 + x44,8 = 1
x45,5 + x45,6 + x45,7 + x45,8 = 1
x46,5 + x46,6 + x46,7 + x46,8 = 1
x47,5 + x47,6 + x47,7 + x47,8 = 1
x48,3 + x48,4 + x48,5 + x48,6 = 1
x49,3 + x49,4 + x49,5 + x49,6 = 1
x50,3 + x50,4 + x50,5 + x50,6 = 1
x51,3 + x51,4 + x51,5 + x51,6 = 1
x52,3 + x52,4 + x52,5 + x52,6 = 1
x53,3 + x53,4 + x53,5 + x53,6 = 1
x54,2 + x54,3 + x54,4 + x54,5 = 1
x55,2 + x55,3 + x55,4 + x55,5 = 1
x56,2 + x56,3 + x56,4 + x56,5 = 1
x57,2 + x57,3 + x57,4 + x57,5 = 1
x58,1 = 1
x59,1 = 1
x60,1 = 1
x61,1 = 1
x62,1 + x62,2 + x62,3 + x62,4 = 1
x63,1 + x63,2 + x63,3 + x63,4 = 1
x64,1 + x64,2 + x64,3 + x64,4 = 1
x65,1 + x65,2 + x65,3 + x65,4 = 1
x58,1 + x59,1 + x60,1 + x61,1 + x62,1 + x63,1 + x64,1 + x65,1 - M2 <= 0
x40,2 + x41,2 + x42,2 + x43,2 + x54,2 + x55,2 + x56,2 + x57,2 + x62,2 + x63,2 + x64,2 + x65,2 - M2 <= 0
x54,3 + x55,3 + x56,3 + x57,3 + x62,3 + x63,3 + x64,3 + x65,3 - M2 <= 0
x32,3 + x32,2 + x33,3 + x33,2 + x34,3 + x34,2 + x35,3 + x35,2 + x36,3 + x36,2 + x37,3 + x37,2 + x38,3 + x38,2 + x39,3 + x39,2 + x48,3 + x48,2 + x49,3 + x49,2 + x50,3 + x50,2 + x51,3 + x51,2 + x52,3 + x52,2 + x53,3 + x53,2 - M1 <= 0
x54,4 + x55,4 + x56,4 + x57,4 + x62,4 + x63,4 + x64,4 + x65,4 - M2 <= 0
x32,4 + x32,3 + x33,4 + x33,3 + x34,4 + x34,3 + x35,4 + x35,3 + x36,4 + x36,3 + x37,4 + x37,3 + x38,4 + x38,3 + x39,4 + x39,3 + x48,4 + x48,3 + x49,4 + x49,3 + x50,4 + x50,3 + x51,4 + x51,3 + x52,4 + x52,3 + x53,4 + x53,3 - M1 <= 0
x28,5 + x29,5 + x30,5 + x31,5 + x44,5 + x45,5 + x46,5 + x47,5 + x54,5 + x55,5 + x56,5 + x57,5 - M2 <= 0
x48,5 + x48,4 + x49,5 + x49,4 + x50,5 + x50,4 + x51,5 + x51,4 + x52,5 + x52,4 + x53,5 + x53,4 - M1 <= 0
x2,6 + x11,6 + x14,6 + x17,6 + x20,6 + x23,6 + x26,6 + x27,6 + x44,6 + x45,6 + x46,6 + x47,6 - M2 <= 0
x48,6 + x48,5 + x49,6 + x49,5 + x50,6 + x50,5 + x51,6 + x51,5 + x52,6 + x52,5 + x53,6 + x53,5 - M1 <= 0
x0,7 + x1,7 + x2,7 + x9,7 + x10,7 + x11,7 + x12,7 + x13,7 + x14,7 + x15,7 + x16,7 + x17,7 + x18,7 + x19,7 + x20,7 + x21,7 + x22,7 + x23,7 + x44,7 + x45,7 + x46,7 + x47,7 - M2 <= 0
x24,7 + x24,6 + x25,7 + x25,6 + x48,7 + x48,6 + x49,7 + x49,6 + x50,7 + x50,6 + x51,7 + x51,6 + x52,7 + x52,6 + x53,7 + x53,6 - M1 <= 0
x0,8 + x1,8 + x2,8 + x9,8 + x10,8 + x11,8 + x12,8 + x13,8 + x14,8 + x15,8 + x16,8 + x17,8 + x18,8 + x19,8 + x20,8 + x21,8 + x22,8 + x23,8 + x44,8 + x45,8 + x46,8 + x47,8 - M2 <= 0
x24,8 + x24,7 + x25,8 + x25,7 - M1 <= 0
x0,9 + x1,9 + x2,9 + x5,9 + x8,9 + x9,9 + x10,9 + x11,9 + x12,9 + x13,9 + x14,9 + x15,9 + x16,9 + x17,9 + x18,9 + x19,9 + x20,9 + x21,9 + x22,9 + x23,9 - M2 <= 0
x0,10 + x1,10 + x3,10 + x4,10 + x6,10 + x7,10 + x9,10 + x10,10 + x12,10 + x13,10 + x15,10 + x16,10 + x18,10 + x19,10 + x21,10 + x22,10 - M2 <= 0
6 x2,6 + 7 x2,7 + 8 x2,8 + 9 x2,9 - 7 x0,7 - 8 x0,8 - 9 x0,9 - 10 x0,10 <= -1
6 x2,6 + 7 x2,7 + 8 x2,8 + 9 x2,9 - 7 x1,7 - 8 x1,8 - 9 x1,9 - 10 x1,10 <= -1
9 x5,9 - 10 x3,10 <= -1
9 x5,9 - 10 x4,10 <= -1
9 x8,9 - 10 x6,10 <= -1
9 x8,9 - 10 x7,10 <= -1
6 x11,6 + 7 x11,7 + 8 x11,8 + 9 x11,9 - 7 x9,7 - 8 x9,8 - 9 x9,9 - 10 x9,10 <= -1
6 x11,6 + 7 x11,7 + 8 x11,8 + 9 x11,9 - 7 x10,7 - 8 x10,8 - 9 x10,9 - 10 x10,10 <= -1
6 x14,6 + 7 x14,7 + 8 x14,8 + 9 x14,9 - 7 x12,7 - 8 x12,8 - 9 x12,9 - 10 x12,10 <= -1
6 x14,6 + 7 x14,7 + 8 x14,8 + 9 x14,9 - 7 x13,7 - 8 x13,8 - 9 x13,9 - 10 x13,10 <= -1
6 x17,6 + 7 x17,7 + 8 x17,8 + 9 x17,9 - 7 x15,7 - 8 x15,8 - 9 x15,9 - 10 x15,10 <= -1
6 x17,6 + 7 x17,7 + 8 x17,8 + 9 x17,9 - 7 x16,7 - 8 x16,8 - 9 x16,9 - 10 x16,10 <= -1
6 x20,6 + 7 x20,7 + 8 x20,8 + 9 x20,9 - 7 x18,7 - 8 x18,8 - 9 x18,9 - 10 x18,10 <= -1
6 x20,6 + 7 x20,7 + 8 x20,8 + 9 x20,9 - 7 x19,7 - 8 x19,8 - 9 x19,9 - 10 x19,10 <= -1
6 x23,6 + 7 x23,7 + 8 x23,8 + 9 x23,9 - 7 x21,7 - 8 x21,8 - 9 x21,9 - 10 x21,10 <= -1
6 x23,6 + 7 x23,7 + 8 x23,8 + 9 x23,9 - 7 x22,7 - 8 x22,8 - 9 x22,9 - 10 x22,10 <= -1
7 x24,7 - 9 x5,9 <= -2
7 x25,7 - 9 x8,9 <= -2
6 x26,6 - 7 x24,7 <= -1
6 x26,6 - 7 x25,7 <= -1
6 x27,6 - 7 x24,7 <= -1
6 x27,6 - 7 x25,7 <= -1
5 x28,5 - 6 x2,6 - 7 x2,7 - 8 x2,8 - 9 x2,9 <= -1
5 x28,5 - 6 x26,6 <= -1
5 x29,5 - 6 x2,6 - 7 x2,7 - 8 x2,8 - 9 x2,9 <= -1
5 x29,5 - 6 x26,6 <= -1
5 x30,5 - 6 x11,6 - 7 x11,7 - 8 x11,8 - 9 x11,9 <= -1
5 x30,5 - 6 x27,6 <= -1
5 x31,5 - 6 x11,6 - 7 x11,7 - 8 x11,8 - 9 x11,9 <= -1
5 x31,5 - 6 x27,6 <= -1
3 x32,3 - 5 x28,5 <= -2
3 x33,3 - 5 x28,5 <= -2
3 x34,3 - 5 x29,5 <= -2
3 x35,3 - 5 x29,5 <= -2
3 x36,3 - 5 x30,5 <= -2
3 x37,3 - 5 x30,5 <= -2
3 x38,3 - 5 x31,5 <= -2
3 x39,3 - 5 x31,5 <= -2
2 x40,2 - 3 x32,3 <= -1
2 x40,2 - 3 x38,3 <= -1
2 x41,2 - 3 x34,3 <= -1
2 x41,2 - 3 x36,3 <= -1
2 x42,2 - 3 x35,3 <= -1
2 x42,2 - 3 x37,3 <= -1
2 x43,2 - 3 x33,3 <= -1
2 x43,2 - 3 x39,3 <= -1
5 x44,5 + 6 x44,6 + 7 x44,7 + 8 x44,8 - 6 x14,6 - 7 x14,7 - 8 x14,8 - 9 x14,9 <= -1
5 x44,5 + 6 x44,6 + 7 x44,7 + 8 x44,8 - 6 x23,6 - 7 x23,7 - 8 x23,8 - 9 x23,9 <= -1
5 x45,5 + 6 x45,6 + 7 x45,7 + 8 x45,8 - 6 x17,6 - 7 x17,7 - 8 x17,8 - 9 x17,9 <= -1
5 x45,5 + 6 x45,6 + 7 x45,7 + 8 x45,8 - 6 x20,6 - 7 x20,7 - 8 x20,8 - 9 x20,9 <= -1
5 x46,5 + 6 x46,6 + 7 x46,7 + 8 x46,8 - 6 x17,6 - 7 x17,7 - 8 x17,8 - 9 x17,9 <= -1
5 x46,5 + 6 x46,6 + 7 x46,7 + 8 x46,8 - 6 x20,6 - 7 x20,7 - 8 x20,8 - 9 x20,9 <= -1
5 x47,5 + 6 x47,6 + 7 x47,7 + 8 x47,8 - 6 x14,6 - 7 x14,7 - 8 x14,8 - 9 x14,9 <= -1
5 x47,5 + 6 x47,6 + 7 x47,7 + 8 x47,8 - 6 x23,6 - 7 x23,7 - 8 x23,8 - 9 x23,9 <= -1
3 x48,3 + 4 x48,4 + 5 x48,5 + 6 x48,6 - 5 x44,5 - 6 x44,6 - 7 x44,7 - 8 x44,8 <= -2
3 x49,3 + 4 x49,4 + 5 x49,5 + 6 x49,6 - 5 x44,5 - 6 x44,6 - 7 x44,7 - 8 x44,8 <= -2
3 x50,3 + 4 x50,4 + 5 x50,5 + 6 x50,6 - 5 x45,5 - 6 x45,6 - 7 x45,7 - 8 x45,8 <= -2
3 x51,3 + 4 x51,4 + 5 x51,5 + 6 x51,6 - 5 x45,5 - 6 x45,6 - 7 x45,7 - 8 x45,8 <= -2
3 x52,3 + 4 x52,4 + 5 x52,5 + 6 x52,6 - 5 x46,5 - 6 x46,6 - 7 x46,7 - 8 x46,8 <= -2
3 x53,3 + 4 x53,4 + 5 x53,5 + 6 x53,6 - 5 x47,5 - 6 x47,6 - 7 x47,7 - 8 x47,8 <= -2
2 x54,2 + 3 x54,3 + 4 x54,4 + 5 x54,5 - 3 x48,3 - 4 x48,4 - 5 x48,5 - 6 x48,6 <= -1
2 x54,2 + 3 x54,3 + 4 x54,4 + 5 x54,5 - 3 x50,3 - 4 x50,4 - 5 x50,5 - 6 x50,6 <= -1
2 x55,2 + 3 x55,3 + 4 x55,4 + 5 x55,5 - 3 x49,3 - 4 x49,4 - 5 x49,5 - 6 x49,6 <= -1
2 x55,2 + 3 x55,3 + 4 x55,4 + 5 x55,5 - 3 x51,3 - 4 x51,4 - 5 x51,5 - 6 x51,6 <= -1
2 x56,2 + 3 x56,3 + 4 x56,4 + 5 x56,5 - 3 x52,3 - 4 x52,4 - 5 x52,5 - 6 x52,6 <= -1
2 x56,2 + 3 x56,3 + 4 x56,4 + 5 x56,5 - 3 x53,3 - 4 x53,4 - 5 x53,5 - 6 x53,6 <= -1
2 x57,2 + 3 x57,3 + 4 x57,4 + 5 x57,5 - 3 x52,3 - 4 x52,4 - 5 x52,5 - 6 x52,6 <= -1
2 x57,2 + 3 x57,3 + 4 x57,4 + 5 x57,5 - 3 x53,3 - 4 x53,4 - 5 x53,5 - 6 x53,6 <= -1
1 x58,1 - 2 x40,2 <= -1
1 x59,1 - 2 x41,2 <= -1
1 x60,1 - 2 x42,2 <= -1
1 x61,1 - 2 x43,2 <= -1
1 x62,1 + 2 x62,2 + 3 x62,3 + 4 x62,4 - 2 x54,2 - 3 x54,3 - 4 x54,4 - 5 x54,5 <= -1
1 x63,1 + 2 x63,2 + 3 x63,3 + 4 x63,4 - 2 x55,2 - 3 x55,3 - 4 x55,4 - 5 x55,5 <= -1
1 x64,1 + 2 x64,2 + 3 x64,3 + 4 x64,4 - 2 x56,2 - 3 x56,3 - 4 x56,4 - 5 x56,5 <= -1
1 x65,1 + 2 x65,2 + 3 x65,3 + 4 x65,4 - 2 x57,2 - 3 x57,3 - 4 x57,4 - 5 x57,5 <= -1
Bounds
0 <= x0,7 <= 1
0 <= x0,8 <= 1
0 <= x0,9 <= 1
0 <= x0,10 <= 1
0 <= x1,7 <= 1
0 <= x1,8 <= 1
0 <= x1,9 <= 1
0 <= x1,10 <= 1
0 <= x2,6 <= 1
0 <= x2,7 <= 1
0 <= x2,8 <= 1
0 <= x2,9 <= 1
0 <= x3,10 <= 1
0 <= x4,10 <= 1
0 <= x5,9 <= 1
0 <= x6,10 <= 1
0 <= x7,10 <= 1
0 <= x8,9 <= 1
0 <= x9,7 <= 1
0 <= x9,8 <= 1
0 <= x9,9 <= 1
0 <= x9,10 <= 1
0 <= x10,7 <= 1
0 <= x10,8 <= 1
0 <= x10,9 <= 1
0 <= x10,10 <= 1
0 <= x11,6 <= 1
0 <= x11,7 <= 1
0 <= x11,8 <= 1
0 <= x11,9 <= 1
0 <= x12,7 <= 1
0 <= x12,8 <= 1
0 <= x12,9 <= 1
0 <= x12,10 <= 1
0 <= x13,7 <= 1
0 <= x13,8 <= 1
0 <= x13,9 <= 1
0 <= x13,10 <= 1
0 <= x14,6 <= 1
0 <= x14,7 <= 1
0 <= x14,8 <= 1
0 <= x14,9 <= 1
0 <= x15,7 <= 1
0 <= x15,8 <= 1
0 <= x15,9 <= 1
0 <= x15,10 <= 1
0 <= x16,7 <= 1
0 <= x16,8 <= 1
0 <= x16,9 <= 1
0 <= x16,10 <= 1
0 <= x17,6 <= 1
0 <= x17,7 <= 1
0 <= x17,8 <= 1
0 <= x17,9 <= 1
0 <= x18,7 <= 1
0 <= x18,8 <= 1
0 <= x18,9 <= 1
0 <= x18,10 <= 1
0 <= x19,7 <= 1
0 <= x19,8 <= 1
0 <= x19,9 <= 1
0 <= x19,10 <= 1
0 <= x20,6 <= 1
0 <= x20,7 <= 1
0 <= x20,8 <= 1
0 <= x20,9 <= 1
0 <= x21,7 <= 1
0 <= x21,8 <= 1
0 <= x21,9 <= 1
0 <= x21,10 <= 1
0 <= x22,7 <= 1
0 <= x22,8 <= 1
0 <= x22,9 <= 1
0 <= x22,10 <= 1
0 <= x23,6 <= 1
0 <= x23,7 <= 1
0 <= x23,8 <= 1
0 <= x23,9 <= 1
0 <= x24,7 <= 1
0 <= x25,7 <= 1
0 <= x26,6 <= 1
0 <= x27,6 <= 1
0 <= x28,5 <= 1
0 <= x29,5 <= 1
0 <= x30,5 <= 1
0 <= x31,5 <= 1
0 <= x32,3 <= 1
0 <= x33,3 <= 1
0 <= x34,3 <= 1
0 <= x35,3 <= 1
0 <= x36,3 <= 1
0 <= x37,3 <= 1
0 <= x38,3 <= 1
0 <= x39,3 <= 1
0 <= x40,2 <= 1
0 <= x41,2 <= 1
0 <= x42,2 <= 1
0 <= x43,2 <= 1
0 <= x44,5 <= 1
0 <= x44,6 <= 1
0 <= x44,7 <= 1
0 <= x44,8 <= 1
0 <= x45,5 <= 1
0 <= x45,6 <= 1
0 <= x45,7 <= 1
0 <= x45,8 <= 1
0 <= x46,5 <= 1
0 <= x46,6 <= 1
0 <= x46,7 <= 1
0 <= x46,8 <= 1
0 <= x47,5 <= 1
0 <= x47,6 <= 1
0 <= x47,7 <= 1
0 <= x47,8 <= 1
0 <= x48,3 <= 1
0 <= x48,4 <= 1
0 <= x48,5 <= 1
0 <= x48,6 <= 1
0 <= x49,3 <= 1
0 <= x49,4 <= 1
0 <= x49,5 <= 1
0 <= x49,6 <= 1
0 <= x50,3 <= 1
0 <= x50,4 <= 1
0 <= x50,5 <= 1
0 <= x50,6 <= 1
0 <= x51,3 <= 1
0 <= x51,4 <= 1
0 <= x51,5 <= 1
0 <= x51,6 <= 1
0 <= x52,3 <= 1
0 <= x52,4 <= 1
0 <= x52,5 <= 1
0 <= x52,6 <= 1
0 <= x53,3 <= 1
0 <= x53,4 <= 1
0 <= x53,5 <= 1
0 <= x53,6 <= 1
0 <= x54,2 <= 1
0 <= x54,3 <= 1
0 <= x54,4 <= 1
0 <= x54,5 <= 1
0 <= x55,2 <= 1
0 <= x55,3 <= 1
0 <= x55,4 <= 1
0 <= x55,5 <= 1
0 <= x56,2 <= 1
0 <= x56,3 <= 1
0 <= x56,4 <= 1
0 <= x56,5 <= 1
0 <= x57,2 <= 1
0 <= x57,3 <= 1
0 <= x57,4 <= 1
0 <= x57,5 <= 1
0 <= x58,1 <= 1
0 <= x59,1 <= 1
0 <= x60,1 <= 1
0 <= x61,1 <= 1
0 <= x62,1 <= 1
0 <= x62,2 <= 1
0 <= x62,3 <= 1
0 <= x62,4 <= 1
0 <= x63,1 <= 1
0 <= x63,2 <= 1
0 <= x63,3 <= 1
0 <= x63,4 <= 1
0 <= x64,1 <= 1
0 <= x64,2 <= 1
0 <= x64,3 <= 1
0 <= x64,4 <= 1
0 <= x65,1 <= 1
0 <= x65,2 <= 1
0 <= x65,3 <= 1
0 <= x65,4 <= 1
M1 >= 1
M2 >= 1
Generals
x0,7
x0,8
x0,9
x0,10
x1,7
x1,8
x1,9
x1,10
x2,6
x2,7
x2,8
x2,9
x3,10
x4,10
x5,9
x6,10
x7,10
x8,9
x9,7
x9,8
x9,9
x9,10
x10,7
x10,8
x10,9
x10,10
x11,6
x11,7
x11,8
x11,9
x12,7
x12,8
x12,9
x12,10
x13,7
x13,8
x13,9
x13,10
x14,6
x14,7
x14,8
x14,9
x15,7
x15,8
x15,9
x15,10
x16,7
x16,8
x16,9
x16,10
x17,6
x17,7
x17,8
x17,9
x18,7
x18,8
x18,9
x18,10
x19,7
x19,8
x19,9
x19,10
x20,6
x20,7
x20,8
x20,9
x21,7
x21,8
x21,9
x21,10
x22,7
x22,8
x22,9
x22,10
x23,6
x23,7
x23,8
x23,9
x24,7
x25,7
x26,6
x27,6
x28,5
x29,5
x30,5
x31,5
x32,3
x33,3
x34,3
x35,3
x36,3
x37,3
x38,3
x39,3
x40,2
x41,2
x42,2
x43,2
x44,5
x44,6
x44,7
x44,8
x45,5
x45,6
x45,7
x45,8
x46,5
x46,6
x46,7
x46,8
x47,5
x47,6
x47,7
x47,8
x48,3
x48,4
x48,5
x48,6
x49,3
x49,4
x49,5
x49,6
x50,3
x50,4
x50,5
x50,6
x51,3
x51,4
x51,5
x51,6
x52,3
x52,4
x52,5
x52,6
x53,3
x53,4
x53,5
x53,6
x54,2
x54,3
x54,4
x54,5
x55,2
x55,3
x55,4
x55,5
x56,2
x56,3
x56,4
x56,5
x57,2
x57,3
x57,4
x57,5
x58,1
x59,1
x60,1
x61,1
x62,1
x62,2
x62,3
x62,4
x63,1
x63,2
x63,3
x63,4
x64,1
x64,2
x64,3
x64,4
x65,1
x65,2
x65,3
x65,4
M1
M2
End
