TC_ILP/cosine1_1.0.sol
<?xml version = "1.0" encoding="UTF-8" standalone="yes"?>
<CPLEXSolution version="1.2">
 <header
   problemName="cosine1_1.0.lp"
   solutionName="incumbent"
   solutionIndex="-1"
   objectiveValue="15"
   solutionTypeValue="3"
   solutionTypeString="primal"
   solutionStatusValue="101"
   solutionStatusString="integer optimal solution"
   solutionMethodString="mip"
   primalFeasible="1"
   dualFeasible="1"
   MIPNodes="0"
   MIPIterations="236"
   writeLevel="1"/>
 <quality
   epInt="1.0000000000000001e-05"
   epRHS="9.9999999999999995e-07"
   maxIntInfeas="8.8817841970012523e-16"
   maxPrimalInfeas="8.8817841970012523e-16"
   maxX="8"
   maxSlack="6.0000000000000009"/>
 <linearConstraints>
  <constraint name="c1" index="0" slack="0"/>
  <constraint name="c2" index="1" slack="0"/>
  <constraint name="c3" index="2" slack="0"/>
  <constraint name="c4" index="3" slack="0"/>
  <constraint name="c5" index="4" slack="0"/>
  <constraint name="c6" index="5" slack="0"/>
  <constraint name="c7" index="6" slack="0"/>
  <constraint name="c8" index="7" slack="0"/>
  <constraint name="c9" index="8" slack="0"/>
  <constraint name="c10" index="9" slack="0"/>
  <constraint name="c11" index="10" slack="0"/>
  <constraint name="c12" index="11" slack="0"/>
  <constraint name="c13" index="12" slack="0"/>
  <constraint name="c14" index="13" slack="0"/>
  <constraint name="c15" index="14" slack="0"/>
  <constraint name="c16" index="15" slack="0"/>
  <constraint name="c17" index="16" slack="0"/>
  <constraint name="c18" index="17" slack="0"/>
  <constraint name="c19" index="18" slack="0"/>
  <constraint name="c20" index="19" slack="0"/>
  <constraint name="c21" index="20" slack="0"/>
  <constraint name="c22" index="21" slack="0"/>
  <constraint name="c23" index="22" slack="0"/>
  <constraint name="c24" index="23" slack="0"/>
  <constraint name="c25" index="24" slack="0"/>
  <constraint name="c26" index="25" slack="0"/>
  <constraint name="c27" index="26" slack="0"/>
  <constraint name="c28" index="27" slack="0"/>
  <constraint name="c29" index="28" slack="0"/>
  <constraint name="c30" index="29" slack="0"/>
  <constraint name="c31" index="30" slack="0"/>
  <constraint name="c32" index="31" slack="0"/>
  <constraint name="c33" index="32" slack="0"/>
  <constraint name="c34" index="33" slack="0"/>
  <constraint name="c35" index="34" slack="0"/>
  <constraint name="c36" index="35" slack="0"/>
  <constraint name="c37" index="36" slack="0"/>
  <constraint name="c38" index="37" slack="0"/>
  <constraint name="c39" index="38" slack="0"/>
  <constraint name="c40" index="39" slack="0"/>
  <constraint name="c41" index="40" slack="0"/>
  <constraint name="c42" index="41" slack="0"/>
  <constraint name="c43" index="42" slack="0"/>
  <constraint name="c44" index="43" slack="0"/>
  <constraint name="c45" index="44" slack="0"/>
  <constraint name="c46" index="45" slack="0"/>
  <constraint name="c47" index="46" slack="0"/>
  <constraint name="c48" index="47" slack="0"/>
  <constraint name="c49" index="48" slack="0"/>
  <constraint name="c50" index="49" slack="3.3306690738754696e-16"/>
  <constraint name="c51" index="50" slack="0"/>
  <constraint name="c52" index="51" slack="0"/>
  <constraint name="c53" index="52" slack="0"/>
  <constraint name="c54" index="53" slack="0"/>
  <constraint name="c55" index="54" slack="0"/>
  <constraint name="c56" index="55" slack="0"/>
  <constraint name="c57" index="56" slack="0"/>
  <constraint name="c58" index="57" slack="0"/>
  <constraint name="c59" index="58" slack="0"/>
  <constraint name="c60" index="59" slack="0"/>
  <constraint name="c61" index="60" slack="0"/>
  <constraint name="c62" index="61" slack="0"/>
  <constraint name="c63" index="62" slack="0"/>
  <constraint name="c64" index="63" slack="-8.8817841970012523e-16"/>
  <constraint name="c65" index="64" slack="0"/>
  <constraint name="c66" index="65" slack="0"/>
  <constraint name="c67" index="66" slack="0"/>
  <constraint name="c68" index="67" slack="1.0000000000000009"/>
  <constraint name="c69" index="68" slack="5.0000000000000009"/>
  <constraint name="c70" index="69" slack="0"/>
  <constraint name="c71" index="70" slack="6.0000000000000009"/>
  <constraint name="c72" index="71" slack="0"/>
  <constraint name="c73" index="72" slack="3.0000000000000009"/>
  <constraint name="c74" index="73" slack="2"/>
  <constraint name="c75" index="74" slack="3.0000000000000009"/>
  <constraint name="c76" index="75" slack="2"/>
  <constraint name="c77" index="76" slack="1.0000000000000009"/>
  <constraint name="c78" index="77" slack="6"/>
  <constraint name="c79" index="78" slack="1.0000000000000009"/>
  <constraint name="c80" index="79" slack="6"/>
  <constraint name="c81" index="80" slack="8.8817841970012523e-16"/>
  <constraint name="c82" index="81" slack="8.8817841970012523e-16"/>
  <constraint name="c83" index="82" slack="1"/>
  <constraint name="c84" index="83" slack="1"/>
  <constraint name="c85" index="84" slack="0"/>
  <constraint name="c86" index="85" slack="0"/>
  <constraint name="c87" index="86" slack="0"/>
  <constraint name="c88" index="87" slack="0"/>
  <constraint name="c89" index="88" slack="0"/>
  <constraint name="c90" index="89" slack="0"/>
  <constraint name="c91" index="90" slack="0"/>
  <constraint name="c92" index="91" slack="0"/>
  <constraint name="c93" index="92" slack="0"/>
  <constraint name="c94" index="93" slack="1"/>
  <constraint name="c95" index="94" slack="0"/>
  <constraint name="c96" index="95" slack="1"/>
  <constraint name="c97" index="96" slack="1"/>
  <constraint name="c98" index="97" slack="0"/>
  <constraint name="c99" index="98" slack="0"/>
  <constraint name="c100" index="99" slack="0"/>
  <constraint name="c101" index="100" slack="0"/>
  <constraint name="c102" index="101" slack="0"/>
  <constraint name="c103" index="102" slack="0"/>
  <constraint name="c104" index="103" slack="0"/>
  <constraint name="c105" index="104" slack="0"/>
  <constraint name="c106" index="105" slack="0"/>
  <constraint name="c107" index="106" slack="0"/>
  <constraint name="c108" index="107" slack="0"/>
  <constraint name="c109" index="108" slack="0"/>
  <constraint name="c110" index="109" slack="0"/>
  <constraint name="c111" index="110" slack="0"/>
  <constraint name="c112" index="111" slack="0"/>
  <constraint name="c113" index="112" slack="0"/>
  <constraint name="c114" index="113" slack="0"/>
  <constraint name="c115" index="114" slack="0"/>
  <constraint name="c116" index="115" slack="0"/>
  <constraint name="c117" index="116" slack="0"/>
  <constraint name="c118" index="117" slack="0"/>
  <constraint name="c119" index="118" slack="0"/>
  <constraint name="c120" index="119" slack="0"/>
  <constraint name="c121" index="120" slack="0"/>
  <constraint name="c122" index="121" slack="0"/>
  <constraint name="c123" index="122" slack="0"/>
  <constraint name="c124" index="123" slack="0"/>
  <constraint name="c125" index="124" slack="0"/>
  <constraint name="c126" index="125" slack="0"/>
  <constraint name="c127" index="126" slack="0"/>
  <constraint name="c128" index="127" slack="0"/>
  <constraint name="c129" index="128" slack="0"/>
  <constraint name="c130" index="129" slack="0"/>
  <constraint name="c131" index="130" slack="0"/>
  <constraint name="c132" index="131" slack="0"/>
  <constraint name="c133" index="132" slack="0"/>
  <constraint name="c134" index="133" slack="0"/>
  <constraint name="c135" index="134" slack="0"/>
  <constraint name="c136" index="135" slack="0"/>
  <constraint name="c137" index="136" slack="0"/>
  <constraint name="c138" index="137" slack="1.7763568394002505e-15"/>
  <constraint name="c139" index="138" slack="0"/>
  <constraint name="c140" index="139" slack="0"/>
  <constraint name="c141" index="140" slack="0"/>
  <constraint name="c142" index="141" slack="0"/>
  <constraint name="c143" index="142" slack="0"/>
  <constraint name="c144" index="143" slack="0"/>
  <constraint name="c145" index="144" slack="0.99999999999999822"/>
  <constraint name="c146" index="145" slack="1"/>
  <constraint name="c147" index="146" slack="1"/>
  <constraint name="c148" index="147" slack="1"/>
  <constraint name="c149" index="148" slack="2"/>
  <constraint name="c150" index="149" slack="2"/>
  <constraint name="c151" index="150" slack="0"/>
  <constraint name="c152" index="151" slack="0"/>
  <constraint name="c153" index="152" slack="0"/>
  <constraint name="c154" index="153" slack="0"/>
  <constraint name="c155" index="154" slack="1"/>
  <constraint name="c156" index="155" slack="0.99999999999999911"/>
  <constraint name="c157" index="156" slack="1"/>
  <constraint name="c158" index="157" slack="0"/>
 </linearConstraints>
 <variables>
  <variable name="M1" index="0" value="8"/>
  <variable name="M2" index="1" value="7.0000000000000009"/>
  <variable name="x0,7" index="2" value="0"/>
  <variable name="x0,8" index="3" value="1"/>
  <variable name="x0,9" index="4" value="-0"/>
  <variable name="x0,10" index="5" value="-0"/>
  <variable name="x1,7" index="6" value="0"/>
  <variable name="x1,8" index="7" value="1"/>
  <variable name="x1,9" index="8" value="-0"/>
  <variable name="x1,10" index="9" value="-0"/>
  <variable name="x2,6" index="10" value="1"/>
  <variable name="x2,7" index="11" value="-0"/>
  <variable name="x2,8" index="12" value="-0"/>
  <variable name="x2,9" index="13" value="-0"/>
  <variable name="x3,10" index="14" value="1"/>
  <variable name="x4,10" index="15" value="1"/>
  <variable name="x5,9" index="16" value="1"/>
  <variable name="x6,10" index="17" value="1"/>
  <variable name="x7,10" index="18" value="1"/>
  <variable name="x8,9" index="19" value="1"/>
  <variable name="x9,7" index="20" value="1"/>
  <variable name="x9,8" index="21" value="-0"/>
  <variable name="x9,9" index="22" value="-0"/>
  <variable name="x9,10" index="23" value="-0"/>
  <variable name="x10,7" index="24" value="1"/>
  <variable name="x10,8" index="25" value="-0"/>
  <variable name="x10,9" index="26" value="-0"/>
  <variable name="x10,10" index="27" value="-0"/>
  <variable name="x11,6" index="28" value="1"/>
  <variable name="x11,7" index="29" value="0"/>
  <variable name="x11,8" index="30" value="-0"/>
  <variable name="x11,9" index="31" value="-0"/>
  <variable name="x12,7" index="32" value="-0"/>
  <variable name="x12,8" index="33" value="-0"/>
  <variable name="x12,9" index="34" value="1"/>
  <variable name="x12,10" index="35" value="-0"/>
  <variable name="x13,7" index="36" value="-0"/>
  <variable name="x13,8" index="37" value="-0"/>
  <variable name="x13,9" index="38" value="1"/>
  <variable name="x13,10" index="39" value="-0"/>
  <variable name="x14,6" index="40" value="0"/>
  <variable name="x14,7" index="41" value="-0"/>
  <variable name="x14,8" index="42" value="1"/>
  <variable name="x14,9" index="43" value="-0"/>
  <variable name="x15,7" index="44" value="-0"/>
  <variable name="x15,8" index="45" value="0"/>
  <variable name="x15,9" index="46" value="1"/>
  <variable name="x15,10" index="47" value="-0"/>
  <variable name="x16,7" index="48" value="0"/>
  <variable name="x16,8" index="49" value="0"/>
  <variable name="x16,9" index="50" value="-0"/>
  <variable name="x16,10" index="51" value="1"/>
  <variable name="x17,6" index="52" value="-0"/>
  <variable name="x17,7" index="53" value="0"/>
  <variable name="x17,8" index="54" value="1"/>
  <variable name="x17,9" index="55" value="0"/>
  <variable name="x18,7" index="56" value="0"/>
  <variable name="x18,8" index="57" value="-0"/>
  <variable name="x18,9" index="58" value="1"/>
  <variable name="x18,10" index="59" value="0"/>
  <variable name="x19,7" index="60" value="-0"/>
  <variable name="x19,8" index="61" value="0"/>
  <variable name="x19,9" index="62" value="-0"/>
  <variable name="x19,10" index="63" value="1"/>
  <variable name="x20,6" index="64" value="0"/>
  <variable name="x20,7" index="65" value="-0"/>
  <variable name="x20,8" index="66" value="1"/>
  <variable name="x20,9" index="67" value="0"/>
  <variable name="x21,7" index="68" value="-0"/>
  <variable name="x21,8" index="69" value="0"/>
  <variable name="x21,9" index="70" value="-0"/>
  <variable name="x21,10" index="71" value="1"/>
  <variable name="x22,7" index="72" value="-0"/>
  <variable name="x22,8" index="73" value="0"/>
  <variable name="x22,9" index="74" value="1"/>
  <variable name="x22,10" index="75" value="0"/>
  <variable name="x23,6" index="76" value="0"/>
  <variable name="x23,7" index="77" value="0"/>
  <variable name="x23,8" index="78" value="1"/>
  <variable name="x23,9" index="79" value="-0"/>
  <variable name="x24,7" index="80" value="1"/>
  <variable name="x25,7" index="81" value="1"/>
  <variable name="x26,6" index="82" value="1"/>
  <variable name="x27,6" index="83" value="1"/>
  <variable name="x28,5" index="84" value="1"/>
  <variable name="x29,5" index="85" value="1"/>
  <variable name="x30,5" index="86" value="1"/>
  <variable name="x31,5" index="87" value="1"/>
  <variable name="x32,3" index="88" value="1"/>
  <variable name="x33,3" index="89" value="1"/>
  <variable name="x34,3" index="90" value="1"/>
  <variable name="x35,3" index="91" value="1"/>
  <variable name="x36,3" index="92" value="1"/>
  <variable name="x37,3" index="93" value="1"/>
  <variable name="x38,3" index="94" value="1"/>
  <variable name="x39,3" index="95" value="1"/>
  <variable name="x40,2" index="96" value="1"/>
  <variable name="x41,2" index="97" value="1"/>
  <variable name="x42,2" index="98" value="1"/>
  <variable name="x43,2" index="99" value="1"/>
  <variable name="x44,5" index="100" value="0"/>
  <variable name="x44,6" index="101" value="-0"/>
  <variable name="x44,7" index="102" value="1"/>
  <variable name="x44,8" index="103" value="-0"/>
  <variable name="x45,5" index="104" value="0"/>
  <variable name="x45,6" index="105" value="-0"/>
  <variable name="x45,7" index="106" value="1"/>
  <variable name="x45,8" index="107" value="-0"/>
  <variable name="x46,5" index="108" value="0"/>
  <variable name="x46,6" index="109" value="-0"/>
  <variable name="x46,7" index="110" value="1"/>
  <variable name="x46,8" index="111" value="0"/>
  <variable name="x47,5" index="112" value="0"/>
  <variable name="x47,6" index="113" value="-0"/>
  <variable name="x47,7" index="114" value="1"/>
  <variable name="x47,8" index="115" value="-0"/>
  <variable name="x48,3" index="116" value="-0"/>
  <variable name="x48,4" index="117" value="-0"/>
  <variable name="x48,5" index="118" value="1"/>
  <variable name="x48,6" index="119" value="-0"/>
  <variable name="x49,3" index="120" value="0"/>
  <variable name="x49,4" index="121" value="-0"/>
  <variable name="x49,5" index="122" value="0.99999999999999967"/>
  <variable name="x49,6" index="123" value="-0"/>
  <variable name="x50,3" index="124" value="0"/>
  <variable name="x50,4" index="125" value="-0"/>
  <variable name="x50,5" index="126" value="1"/>
  <variable name="x50,6" index="127" value="-0"/>
  <variable name="x51,3" index="128" value="-0"/>
  <variable name="x51,4" index="129" value="-0"/>
  <variable name="x51,5" index="130" value="1"/>
  <variable name="x51,6" index="131" value="-0"/>
  <variable name="x52,3" index="132" value="0"/>
  <variable name="x52,4" index="133" value="-0"/>
  <variable name="x52,5" index="134" value="1"/>
  <variable name="x52,6" index="135" value="0"/>
  <variable name="x53,3" index="136" value="0"/>
  <variable name="x53,4" index="137" value="-0"/>
  <variable name="x53,5" index="138" value="1"/>
  <variable name="x53,6" index="139" value="-0"/>
  <variable name="x54,2" index="140" value="0"/>
  <variable name="x54,3" index="141" value="-0"/>
  <variable name="x54,4" index="142" value="1"/>
  <variable name="x54,5" index="143" value="-0"/>
  <variable name="x55,2" index="144" value="-0"/>
  <variable name="x55,3" index="145" value="1"/>
  <variable name="x55,4" index="146" value="-0"/>
  <variable name="x55,5" index="147" value="0"/>
  <variable name="x56,2" index="148" value="-0"/>
  <variable name="x56,3" index="149" value="1"/>
  <variable name="x56,4" index="150" value="0"/>
  <variable name="x56,5" index="151" value="-0"/>
  <variable name="x57,2" index="152" value="1"/>
  <variable name="x57,3" index="153" value="-0"/>
  <variable name="x57,4" index="154" value="-0"/>
  <variable name="x57,5" index="155" value="-0"/>
  <variable name="x58,1" index="156" value="1"/>
  <variable name="x59,1" index="157" value="1"/>
  <variable name="x60,1" index="158" value="1"/>
  <variable name="x61,1" index="159" value="1"/>
  <variable name="x62,1" index="160" value="0"/>
  <variable name="x62,2" index="161" value="1"/>
  <variable name="x62,3" index="162" value="-0"/>
  <variable name="x62,4" index="163" value="-0"/>
  <variable name="x63,1" index="164" value="1.0000000000000009"/>
  <variable name="x63,2" index="165" value="0"/>
  <variable name="x63,3" index="166" value="0"/>
  <variable name="x63,4" index="167" value="-0"/>
  <variable name="x64,1" index="168" value="1"/>
  <variable name="x64,2" index="169" value="-0"/>
  <variable name="x64,3" index="170" value="-0"/>
  <variable name="x64,4" index="171" value="-0"/>
  <variable name="x65,1" index="172" value="1"/>
  <variable name="x65,2" index="173" value="-0"/>
  <variable name="x65,3" index="174" value="-0"/>
  <variable name="x65,4" index="175" value="0"/>
  <variable name="x32,2" index="176" value="0"/>
  <variable name="x33,2" index="177" value="0"/>
  <variable name="x34,2" index="178" value="0"/>
  <variable name="x35,2" index="179" value="0"/>
  <variable name="x36,2" index="180" value="0"/>
  <variable name="x37,2" index="181" value="0"/>
  <variable name="x38,2" index="182" value="0"/>
  <variable name="x39,2" index="183" value="0"/>
  <variable name="x48,2" index="184" value="0"/>
  <variable name="x49,2" index="185" value="0"/>
  <variable name="x50,2" index="186" value="0"/>
  <variable name="x51,2" index="187" value="0"/>
  <variable name="x52,2" index="188" value="0"/>
  <variable name="x53,2" index="189" value="0"/>
  <variable name="x32,4" index="190" value="0"/>
  <variable name="x33,4" index="191" value="0"/>
  <variable name="x34,4" index="192" value="0"/>
  <variable name="x35,4" index="193" value="0"/>
  <variable name="x36,4" index="194" value="0"/>
  <variable name="x37,4" index="195" value="0"/>
  <variable name="x38,4" index="196" value="0"/>
  <variable name="x39,4" index="197" value="0"/>
  <variable name="x24,6" index="198" value="0"/>
  <variable name="x25,6" index="199" value="0"/>
  <variable name="x48,7" index="200" value="0"/>
  <variable name="x49,7" index="201" value="0"/>
  <variable name="x50,7" index="202" value="0"/>
  <variable name="x51,7" index="203" value="0"/>
  <variable name="x52,7" index="204" value="0"/>
  <variable name="x53,7" index="205" value="0"/>
  <variable name="x24,8" index="206" value="0"/>
  <variable name="x25,8" index="207" value="0"/>
 </variables>
</CPLEXSolution>
